NAME: burma14
TYPE: TSP
COMMENT: 14-Staedte in Burma (Zaw Win)
DIMENSION: 1
EDGE_WEIGHT_TYPE: GEO
EDGE_WEIGHT_FORMAT: FUNCTION 
DISPLAY_DATA_TYPE: COORD_DISPLAY
NODE_COORD_SECTION
  14  20.09       94.55
EOF
